NAME: CMT12_2
TYPE: CVRP
COMMENT: 819.56 - Cluster Nr.2
DIMENSION: 18
CAPACITY: 200
EDGE_WEIGHT_TYPE: EUC_2D
NODE_COORD_TYPE: TWOD_COORDS
NODE_COORD_SECTION: 
18 45 35
7 47 35
14 35 30
17 30 35
9 40 50
6 33 35
5 26 32
8 25 30
16 45 30
4 25 35
15 48 30
12 30 32
2 28 30
10 35 32
1 33 32
3 28 35
13 32 30
11 30 30
DEPOT_SECTION: 
9
-1
DEMAND_SECTION: 
11 10
14 10
16 10
10 10
6 10
18 10
13 10
8 10
12 30
17 10
1 20
15 10
7 10
2 10
5 10
9 0
4 10
3 10
EOF
